# Objective value = 2.4491000000000004e+03
I_0_0 1214
I_0_1 1377
I_0_2 1.5360000000000002e+03
I_0_3 1805
I_1_0 126
I_1_1 63
I_1_2 0
I_1_3 126
I_2_0 22
I_2_1 0
I_2_2 22
I_2_3 0
I_3_0 116
I_3_1 116
I_3_2 58
I_3_3 0
I_4_0 52
I_4_1 5.1999999999999957e+01
I_4_2 2.6000000000000036e+01
I_4_3 4.3076653355456080e-14
I_5_0 18
I_5_1 -1.2989609388114332e-14
I_5_2 18
I_5_3 0
I_6_0 99
I_6_1 99
I_6_2 99
I_6_3 0
I_7_0 78
I_7_1 3.8999999999999993e+01
I_7_2 7.7999999999999957e+01
I_7_3 3.9000000000000043e+01
I_8_0 21
I_8_1 -4.6629367034256575e-15
I_8_2 2.1000000000000007e+01
I_8_3 0
I_9_0 64
I_9_1 6.4000000000000014e+01
I_9_2 32
I_9_3 -1.7763568394002481e-15
I_10_0 160
I_10_1 1.6000000000000003e+02
I_10_2 7.9999999999999972e+01
I_10_3 -1.9539925233402774e-14
q_1_0_0 0
q_1_0_1 0
q_1_0_2 189
q_1_1_0 0
q_1_1_1 0
q_1_1_2 0
q_2_0_0 0
q_2_0_1 44
q_2_0_2 0
q_2_1_0 0
q_2_1_1 0
q_2_1_2 0
q_3_0_0 58
q_3_0_1 0
q_3_0_2 0
q_3_1_0 0
q_3_1_1 0
q_3_1_2 0
q_4_0_0 2.5999999999999989e+01
q_4_0_1 8.2600593032111659e-14
q_4_0_2 0
q_4_1_0 -2.5979218776228663e-14
q_4_1_1 0
q_4_1_2 0
q_5_0_0 0
q_5_0_1 3.6000000000000014e+01
q_5_0_2 0
q_5_1_0 -1.2989609388114332e-14
q_5_1_1 0
q_5_1_2 0
q_6_0_0 99
q_6_0_1 99
q_6_0_2 0
q_6_1_0 0
q_6_1_1 0
q_6_1_2 0
q_7_0_0 0
q_7_0_1 7.7999999999999986e+01
q_7_0_2 2.1316282072803006e-14
q_7_1_0 -8.6597395920762210e-15
q_7_1_1 0
q_7_1_2 0
q_8_0_0 0
q_8_0_1 4.2000000000000014e+01
q_8_0_2 -5.3290705182007514e-15
q_8_1_0 -4.6629367034256575e-15
q_8_1_1 0
q_8_1_2 0
q_9_0_0 3.2000000000000021e+01
q_9_0_1 0
q_9_0_2 0
q_9_1_0 -1.4210854715202004e-14
q_9_1_1 -3.1554436208840472e-30
q_9_1_2 0
q_10_0_0 8.0000000000000028e+01
q_10_0_1 -1.0658141036401505e-13
q_10_0_2 0
q_10_1_0 0
q_10_1_1 0
q_10_1_2 0
y_0_0_0 1
y_0_0_1 1
y_0_0_2 1
y_0_1_0 0
y_0_1_1 0
y_0_1_2 0
y_1_0_0 0
y_1_0_1 0
y_1_0_2 1
y_1_1_0 0
y_1_1_1 0
y_1_1_2 0
y_2_0_0 0
y_2_0_1 1
y_2_0_2 0
y_2_1_0 0
y_2_1_1 0
y_2_1_2 0
y_3_0_0 1
y_3_0_1 0
y_3_0_2 0
y_3_1_0 0
y_3_1_1 0
y_3_1_2 0
y_4_0_0 9.9999999999999956e-01
y_4_0_1 1.5543122344752194e-15
y_4_0_2 0
y_4_1_0 -9.9920072216264089e-16
y_4_1_1 0
y_4_1_2 0
y_5_0_0 0
y_5_0_1 1.0000000000000011e+00
y_5_0_2 0
y_5_1_0 -7.2164496600635175e-16
y_5_1_1 0
y_5_1_2 0
y_6_0_0 1
y_6_0_1 1
y_6_0_2 0
y_6_1_0 0
y_6_1_1 0
y_6_1_2 0
y_7_0_0 0
y_7_0_1 1
y_7_0_2 1.9428902930940239e-16
y_7_1_0 -2.2204460492503131e-16
y_7_1_1 0
y_7_1_2 0
y_8_0_0 0
y_8_0_1 1.0000000000000004e+00
y_8_0_2 -1.3877787807814457e-16
y_8_1_0 -2.2204460492503131e-16
y_8_1_1 0
y_8_1_2 0
y_9_0_0 1.0000000000000007e+00
y_9_0_1 0
y_9_0_2 0
y_9_1_0 -4.4408920985006262e-16
y_9_1_1 -4.9303806576313238e-32
y_9_1_2 0
y_10_0_0 1.0000000000000004e+00
y_10_0_1 -9.1593399531575434e-16
y_10_0_2 0
y_10_1_0 0
y_10_1_1 0
y_10_1_2 0
x_0_1_0_0 0
x_0_1_0_1 0
x_0_1_0_2 2
x_0_1_1_0 0
x_0_1_1_1 0
x_0_1_1_2 0
x_0_2_0_0 0
x_0_2_0_1 0
x_0_2_0_2 0
x_0_2_1_0 0
x_0_2_1_1 0
x_0_2_1_2 0
x_0_3_0_0 0
x_0_3_0_1 0
x_0_3_0_2 0
x_0_3_1_0 0
x_0_3_1_1 0
x_0_3_1_2 0
x_0_4_0_0 -6.6613381477509432e-16
x_0_4_0_1 3.1086244689504387e-15
x_0_4_0_2 0
x_0_4_1_0 0
x_0_4_1_1 0
x_0_4_1_2 0
x_0_5_0_0 0
x_0_5_0_1 1.0000000000000018e+00
x_0_5_0_2 0
x_0_5_1_0 0
x_0_5_1_1 0
x_0_5_1_2 0
x_0_6_0_0 1
x_0_6_0_1 0
x_0_6_0_2 0
x_0_6_1_0 0
x_0_6_1_1 0
x_0_6_1_2 0
x_0_7_0_0 0
x_0_7_0_1 0
x_0_7_0_2 0
x_0_7_1_0 -2.2204460492503131e-16
x_0_7_1_1 0
x_0_7_1_2 0
x_0_8_0_0 6.9388939039072313e-16
x_0_8_0_1 1.0000000000000004e+00
x_0_8_0_2 0
x_0_8_1_0 -2.2204460492503131e-16
x_0_8_1_1 0
x_0_8_1_2 0
x_0_9_0_0 0
x_0_9_0_1 0
x_0_9_0_2 0
x_0_9_1_0 0
x_0_9_1_1 0
x_0_9_1_2 0
x_0_10_0_0 1
x_0_10_0_1 -1.8318679906315087e-15
x_0_10_0_2 0
x_0_10_1_0 4.4408920985006262e-16
x_0_10_1_1 0
x_0_10_1_2 0
x_1_2_0_0 0
x_1_2_0_1 0
x_1_2_0_2 0
x_1_2_1_0 0
x_1_2_1_1 0
x_1_2_1_2 0
x_1_3_0_0 0
x_1_3_0_1 0
x_1_3_0_2 0
x_1_3_1_0 0
x_1_3_1_1 0
x_1_3_1_2 0
x_1_4_0_0 0
x_1_4_0_1 0
x_1_4_0_2 0
x_1_4_1_0 0
x_1_4_1_1 0
x_1_4_1_2 0
x_1_5_0_0 0
x_1_5_0_1 0
x_1_5_0_2 0
x_1_5_1_0 0
x_1_5_1_1 0
x_1_5_1_2 0
x_1_6_0_0 0
x_1_6_0_1 0
x_1_6_0_2 0
x_1_6_1_0 0
x_1_6_1_1 0
x_1_6_1_2 0
x_1_7_0_0 0
x_1_7_0_1 0
x_1_7_0_2 0
x_1_7_1_0 0
x_1_7_1_1 0
x_1_7_1_2 0
x_1_8_0_0 0
x_1_8_0_1 0
x_1_8_0_2 0
x_1_8_1_0 0
x_1_8_1_1 0
x_1_8_1_2 0
x_1_9_0_0 0
x_1_9_0_1 0
x_1_9_0_2 0
x_1_9_1_0 0
x_1_9_1_1 0
x_1_9_1_2 0
x_1_10_0_0 0
x_1_10_0_1 0
x_1_10_0_2 0
x_1_10_1_0 0
x_1_10_1_1 0
x_1_10_1_2 0
x_2_3_0_0 0
x_2_3_0_1 0
x_2_3_0_2 0
x_2_3_1_0 0
x_2_3_1_1 0
x_2_3_1_2 0
x_2_4_0_0 0
x_2_4_0_1 0
x_2_4_0_2 0
x_2_4_1_0 0
x_2_4_1_1 0
x_2_4_1_2 0
x_2_5_0_0 0
x_2_5_0_1 0
x_2_5_0_2 0
x_2_5_1_0 0
x_2_5_1_1 0
x_2_5_1_2 0
x_2_6_0_0 0
x_2_6_0_1 1
x_2_6_0_2 0
x_2_6_1_0 0
x_2_6_1_1 0
x_2_6_1_2 0
x_2_7_0_0 0
x_2_7_0_1 1
x_2_7_0_2 0
x_2_7_1_0 0
x_2_7_1_1 0
x_2_7_1_2 0
x_2_8_0_0 0
x_2_8_0_1 0
x_2_8_0_2 0
x_2_8_1_0 0
x_2_8_1_1 0
x_2_8_1_2 0
x_2_9_0_0 0
x_2_9_0_1 0
x_2_9_0_2 0
x_2_9_1_0 0
x_2_9_1_1 0
x_2_9_1_2 0
x_2_10_0_0 0
x_2_10_0_1 0
x_2_10_0_2 0
x_2_10_1_0 0
x_2_10_1_1 0
x_2_10_1_2 0
x_3_4_0_0 1
x_3_4_0_1 0
x_3_4_0_2 0
x_3_4_1_0 0
x_3_4_1_1 0
x_3_4_1_2 0
x_3_5_0_0 0
x_3_5_0_1 0
x_3_5_0_2 0
x_3_5_1_0 0
x_3_5_1_1 0
x_3_5_1_2 0
x_3_6_0_0 1
x_3_6_0_1 0
x_3_6_0_2 0
x_3_6_1_0 0
x_3_6_1_1 0
x_3_6_1_2 0
x_3_7_0_0 0
x_3_7_0_1 0
x_3_7_0_2 0
x_3_7_1_0 0
x_3_7_1_1 0
x_3_7_1_2 0
x_3_8_0_0 0
x_3_8_0_1 0
x_3_8_0_2 0
x_3_8_1_0 0
x_3_8_1_1 0
x_3_8_1_2 0
x_3_9_0_0 0
x_3_9_0_1 0
x_3_9_0_2 0
x_3_9_1_0 0
x_3_9_1_1 0
x_3_9_1_2 0
x_3_10_0_0 0
x_3_10_0_1 0
x_3_10_0_2 0
x_3_10_1_0 0
x_3_10_1_1 0
x_3_10_1_2 0
x_4_5_0_0 0
x_4_5_0_1 0
x_4_5_0_2 0
x_4_5_1_0 -1.4432899320127035e-15
x_4_5_1_1 0
x_4_5_1_2 0
x_4_6_0_0 0
x_4_6_0_1 0
x_4_6_0_2 -1.3877787807814457e-16
x_4_6_1_0 0
x_4_6_1_1 0
x_4_6_1_2 0
x_4_7_0_0 0
x_4_7_0_1 0
x_4_7_0_2 0
x_4_7_1_0 0
x_4_7_1_1 0
x_4_7_1_2 0
x_4_8_0_0 0
x_4_8_0_1 0
x_4_8_0_2 0
x_4_8_1_0 0
x_4_8_1_1 0
x_4_8_1_2 0
x_4_9_0_0 1
x_4_9_0_1 0
x_4_9_0_2 0
x_4_9_1_0 -4.4408920985006262e-16
x_4_9_1_1 0
x_4_9_1_2 0
x_4_10_0_0 4.4408920985006271e-16
x_4_10_0_1 0
x_4_10_0_2 1.3877787807814457e-16
x_4_10_1_0 0
x_4_10_1_1 0
x_4_10_1_2 0
x_5_6_0_0 0
x_5_6_0_1 1
x_5_6_0_2 0
x_5_6_1_0 0
x_5_6_1_1 0
x_5_6_1_2 0
x_5_7_0_0 0
x_5_7_0_1 0
x_5_7_0_2 0
x_5_7_1_0 0
x_5_7_1_1 0
x_5_7_1_2 0
x_5_8_0_0 0
x_5_8_0_1 0
x_5_8_0_2 1.3877787807814457e-16
x_5_8_1_0 0
x_5_8_1_1 0
x_5_8_1_2 0
x_5_9_0_0 0
x_5_9_0_1 0
x_5_9_0_2 0
x_5_9_1_0 0
x_5_9_1_1 0
x_5_9_1_2 0
x_5_10_0_0 0
x_5_10_0_1 0
x_5_10_0_2 -1.3877787807814457e-16
x_5_10_1_0 0
x_5_10_1_1 0
x_5_10_1_2 0
x_6_7_0_0 0
x_6_7_0_1 0
x_6_7_0_2 2.2204460492503131e-16
x_6_7_1_0 0
x_6_7_1_1 0
x_6_7_1_2 0
x_6_8_0_0 -6.9388939039072313e-16
x_6_8_0_1 0
x_6_8_0_2 1.1102230246251565e-16
x_6_8_1_0 0
x_6_8_1_1 0
x_6_8_1_2 0
x_6_9_0_0 0
x_6_9_0_1 0
x_6_9_0_2 0
x_6_9_1_0 0
x_6_9_1_1 0
x_6_9_1_2 0
x_6_10_0_0 0
x_6_10_0_1 0
x_6_10_0_2 0
x_6_10_1_0 0
x_6_10_1_1 0
x_6_10_1_2 0
x_7_8_0_0 0
x_7_8_0_1 1
x_7_8_0_2 1.9428902930940239e-16
x_7_8_1_0 -2.2204460492503131e-16
x_7_8_1_1 0
x_7_8_1_2 0
x_7_9_0_0 0
x_7_9_0_1 0
x_7_9_0_2 0
x_7_9_1_0 0
x_7_9_1_1 0
x_7_9_1_2 0
x_7_10_0_0 0
x_7_10_0_1 0
x_7_10_0_2 0
x_7_10_1_0 0
x_7_10_1_1 0
x_7_10_1_2 0
x_8_9_0_0 0
x_8_9_0_1 0
x_8_9_0_2 0
x_8_9_1_0 0
x_8_9_1_1 0
x_8_9_1_2 0
x_8_10_0_0 0
x_8_10_0_1 0
x_8_10_0_2 0
x_8_10_1_0 0
x_8_10_1_1 0
x_8_10_1_2 0
x_9_10_0_0 1.0000000000000004e+00
x_9_10_0_1 0
x_9_10_0_2 0
x_9_10_1_0 -4.4408920985006262e-16
x_9_10_1_1 0
x_9_10_1_2 0
